c This is QMaxSAT 2017 based on 14.07
c This is Glucose 3.0
c This is MiniSat 2.2.0
c WARNING: for repeatability, setting FPU to use double precision
c card = mrwto, comp = 0, pmodel = 0, narr = 8, mct = 152, verb = 0
cr firstCPXsol 0 0 0
c top = 158709225
c |  Number of variables:    50562                                            |
c |  Number of clauses:      7718985                                          |
c |  Weight of hard clauses: 158709225                                        |
c |  Number of soft clauses: 200528                                           |
c |  Number of unit soft clauses: 0                                           |
c |  Maximum Cardinality (by unit): 1422784848   (0           )               |
c last restart ## conflicts  :  25 9659 
o 953386 | cpuTime 1740.23 s
c Sum of weights = 177848106
c A number of soft clauses remained = 25066
c MRWTO encoding for Pseudo-Boolean Constraints
c sizeMax=65536
c No.0 Divisor=16	generated by pow1
c No.1 Divisor=16	generated by pow1
c No.2 Divisor=16	generated by pow1
c No.3 Divisor=16	generated by pow1
c No.4 Divisor=16	generated by pow1
c p0= 16	p1= 16	p2= 16	p3= 16	p4= 16	
c number of digits = 6
c linkingVar[0].size = 16, linkingVar[1].size = 16, linkingVar[2].size = 16, linkingVar[3].size = 16, linkingVar[4].size = 15, linkingVar[5].size = 1, 
c Pseudo-Boolean Constraints: 1115643 variables and 15785384 clauses
c Sum of weights = 177848106
c A number of soft clauses remained = 25066
c MRWTO encoding for Pseudo-Boolean Constraints
c sizeMax=65536
c No.0 Divisor=16	generated by pow1
c No.1 Divisor=16	generated by pow1
c No.2 Divisor=16	generated by pow1
c No.3 Divisor=16	generated by pow1
c No.4 Divisor=16	generated by pow1
c p0= 16	p1= 16	p2= 16	p3= 16	p4= 16	
c number of digits = 6
c linkingVar[0].size = 16, linkingVar[1].size = 16, linkingVar[2].size = 16, linkingVar[3].size = 16, linkingVar[4].size = 15, linkingVar[5].size = 1, 
c Pseudo-Boolean Constraints: 1115643 variables and 15785384 clauses
c Sum of weights = 177848106
c A number of soft clauses remained = 25066
c MRWTO encoding for Pseudo-Boolean Constraints
c sizeMax=65536
c No.0 Divisor=16	generated by pow1
c No.1 Divisor=16	generated by pow1
c No.2 Divisor=16	generated by pow1
c No.3 Divisor=16	generated by pow1
c No.4 Divisor=16	generated by pow1
c p0= 16	p1= 16	p2= 16	p3= 16	p4= 16	
c number of digits = 6
c linkingVar[0].size = 16, linkingVar[1].size = 16, linkingVar[2].size = 16, linkingVar[3].size = 16, linkingVar[4].size = 15, linkingVar[5].size = 1, 
c Pseudo-Boolean Constraints: 1115643 variables and 15785384 clauses
c Sum of weights = 177848106
c A number of soft clauses remained = 25066
c MRWTO encoding for Pseudo-Boolean Constraints
c sizeMax=65536
c No.0 Divisor=16	generated by pow1
c No.1 Divisor=16	generated by pow1
c No.2 Divisor=16	generated by pow1
c No.3 Divisor=16	generated by pow1
c No.4 Divisor=16	generated by pow1
c p0= 16	p1= 16	p2= 16	p3= 16	p4= 16	
c number of digits = 6
c linkingVar[0].size = 16, linkingVar[1].size = 16, linkingVar[2].size = 16, linkingVar[3].size = 16, linkingVar[4].size = 15, linkingVar[5].size = 1, 
c Pseudo-Boolean Constraints: 1115643 variables and 15785384 clauses
c Sum of weights = 177848106
c A number of soft clauses remained = 25066
c MRWTO encoding for Pseudo-Boolean Constraints
c sizeMax=65536
c No.0 Divisor=16	generated by pow1
c No.1 Divisor=16	generated by pow1
c No.2 Divisor=16	generated by pow1
c No.3 Divisor=16	generated by pow1
c No.4 Divisor=16	generated by pow1
c p0= 16	p1= 16	p2= 16	p3= 16	p4= 16	
c number of digits = 6
c linkingVar[0].size = 16, linkingVar[1].size = 16, linkingVar[2].size = 16, linkingVar[3].size = 16, linkingVar[4].size = 15, linkingVar[5].size = 1, 
c Pseudo-Boolean Constraints: 1115643 variables and 15785384 clauses
c Sum of weights = 177848106
c A number of soft clauses remained = 25066
c MRWTO encoding for Pseudo-Boolean Constraints
c sizeMax=65536
c No.0 Divisor=16	generated by pow1
c No.1 Divisor=16	generated by pow1
c No.2 Divisor=16	generated by pow1
c No.3 Divisor=16	generated by pow1
c No.4 Divisor=16	generated by pow1
c p0= 16	p1= 16	p2= 16	p3= 16	p4= 16	
c number of digits = 6
c linkingVar[0].size = 16, linkingVar[1].size = 16, linkingVar[2].size = 16, linkingVar[3].size = 16, linkingVar[4].size = 15, linkingVar[5].size = 1, 
c Pseudo-Boolean Constraints: 1115643 variables and 15785384 clauses
c Sum of weights = 177848106
c A number of soft clauses remained = 25066
c MRWTO encoding for Pseudo-Boolean Constraints
c sizeMax=65536
c No.0 Divisor=16	generated by pow1
c No.1 Divisor=16	generated by pow1
c No.2 Divisor=16	generated by pow1
c No.3 Divisor=16	generated by pow1
c No.4 Divisor=16	generated by pow1
c p0= 16	p1= 16	p2= 16	p3= 16	p4= 16	
c number of digits = 6
c linkingVar[0].size = 16, linkingVar[1].size = 16, linkingVar[2].size = 16, linkingVar[3].size = 16, linkingVar[4].size = 15, linkingVar[5].size = 1, 
c Pseudo-Boolean Constraints: 1115643 variables and 15785384 clauses
c Sum of weights = 177848106
c A number of soft clauses remained = 25066
c MRWTO encoding for Pseudo-Boolean Constraints
c sizeMax=65536
c No.0 Divisor=16	generated by pow1
c No.1 Divisor=16	generated by pow1
c No.2 Divisor=16	generated by pow1
c No.3 Divisor=16	generated by pow1
c No.4 Divisor=16	generated by pow1
c p0= 16	p1= 16	p2= 16	p3= 16	p4= 16	
c number of digits = 6
c linkingVar[0].size = 16, linkingVar[1].size = 16, linkingVar[2].size = 16, linkingVar[3].size = 16, linkingVar[4].size = 15, linkingVar[5].size = 1, 
c Pseudo-Boolean Constraints: 1115643 variables and 15785384 clauses
s UNKNOWN
c Search is stopped by a limit (maybe time-limit)
cr positiVarArr: [ | 118(1->111) | 306(1->140) | 452(1->127) | 590(1->106) | 686(1->43) | 886(1->84) | 1103(1->142) | 1208(1->88) | 1429(2->150) | 1462(3->24) | 1702(4->105) | 1821(5->65) | 2051(6->136) | 2121(7->47) | 2230(8->1) | 2422(9->30) | 2648(10->97) | 2785(11->75) | 2960(12->91) | 3126(13->98) | 3331(14->144) | 3368(15->22) | 3635(16->130) | 3699(17->35) | 3824(18->1) | 4026(19->44) | 4155(20->14) | 4379(21->79) | 4569(22->110) | 4652(23->34) | 4863(24->86) | 4955(25->19) | 5144(26->49) | 5327(27->73) | 5473(28->60) | 5685(29->113) | 5848(30->117) | 5931(31->41) | 6061(32->12) | 6214(33->6) | 6485(34->118) | 6587(35->61) | 6700(36->15) | 6976(37->132) | 7011(38->8) | 7167(39->5) | 7376(40->55) | 7617(41->137) | 7755(42->116) | 7899(43->101) | 8015(44->58) | 8173(45->57) | 8418(46->143) | 8459(47->25) | 8683(48->90) | 8751(49->1) | 9060(50->149) | 9174(51->104) | 9309(52->80) | 9397(53->9) | 9567(54->20) | 9831(55->125) | 9876(56->11) | 10045(57->21) | 10317(58->134) | 10435(59->93) | 10590(60->89) | 10734(61->74) | 10865(62->46) | 11010(63->32) | 11141(64->4) | 11350(65->54) | 11482(66->27) | 11713(67->99) | 11791(68->18) | 11932(69->1) | 12160(70->69) | 12276(71->26) | 12457(72->48) | 12715(73->147) | 12878(74->151) | 13027(75->141) | 13178(76->133) | 13342(77->138) | 13376(78->13) | 13670(79->148) | 13789(80->108) | 13850(81->10) | 14102(82->103) | 14153(83->1) | 14395(84->78) | 14516(85->40) | 14677(86->42) | 14940(87->146) | 15092(88->139) | 15128(89->16) | 15307(90->36) | 15550(91->120) | 15628(92->39) | 15800(93->52) | 16033(94->126) | 16168(95->102) | 16291(96->66) | 16415(97->31) | 16614(98->71) | 16704(99->2) | 16929(100->68) | 17172(101->152) | 17271(102->92) | 17410(103->72) | 17580(104->83) | 17751(105->95) | 17944(106->129) | 18011(107->37) | 18278(108->145) | 18420(109->128) | 18582(110->131) | 18729(111->119) | 18836(112->67) | 18945(113->17) | 19222(114->135) | 19275(115->29) | 19412(116->7) | 19679(117->115) | 19761(118->38) | 19989(119->107) | 20086(120->45) | 20250(121->50) | 20471(122->112) | 20605(123->87) | 20777(124->100) | 20913(125->77) | 21077(126->82) | 21276(127->122) | 21434(128->121) | 21523(129->51) | 21625(130->1) | 21813(131->23) | 22011(132->62) | 22217(133->109) | 22265(134->1) | 22507(135->81) | 22648(136->63) | 22800(137->56) | 22936(138->33) | 23138(139->76) | 23224(140->3) | 23476(141->96) | 23603(142->64) | 23783(143->85) | 23853(144->1) | 24140(145->124) | 24269(146->94) | 24393(147->59) | 24521(148->28) | 24775(149->123) | 24864(150->53) | 25084(151->114) | 25199(152->70) | ]
cr the 1-th chain: [ 1->111->119->107->37->132->62->46->143->85->40->55->125->77->138->33->6->136->63->32->12->91->120->45->57->21->79->148->28->60->89->16->130->1 ] (#non-depot=32) {#cumul.=33}
cr the 2-th chain: [ 1->140->3->24->86->42->116->7->47->25->19->44->58->134->1 ] (#non-depot=13) {#cumul.=46}
cr the 3-th chain: [ 1->127->122->112->67->99->2->150->53->9->30->117->115->29->113->17->35->61->74->151->114->135->81->10->97->31->41->137->56->11->75->141->96->66->27->73->147->59->93->52->80->108->145->124->100->68->18->1 ] (#non-depot=46) {#cumul.=92}
cr the 4-th chain: [ 1->106->129->51->104->83->1 ] (#non-depot=5) {#cumul.=97}
cr the 5-th chain: [ 1->43->101->152->70->69->1 ] (#non-depot=5) {#cumul.=102}
cr the 6-th chain: [ 1->84->78->13->98->71->26->49->1 ] (#non-depot=7) {#cumul.=109}
cr the 7-th chain: [ 1->142->64->4->105->95->102->92->39->5->65->54->20->14->144->1 ] (#non-depot=14) {#cumul.=123}
cr the 8-th chain: [ 1->88->139->76->133->109->128->121->50->149->123->87->146->94->126->82->103->72->48->90->36->15->22->110->131->23->34->118->38->8->1 ] (#non-depot=29) {#cumul.=152}
c Latest Answer = 0 by 1 loops
c restarts              : 39
c conflicts             : 9559116        (1057 /sec)
c decisions             : 13788815       (0.00 % random) (1525 /sec)
c propagations          : 2278961339     (252112 /sec)
c conflict literals     : 11202081982    (2.90 % deleted)
c Memory used           : 17297.00 MB
c CPU time              : 9039.48 s
